words_train/words_933_SAT.qaiger
aag 78 16 0 1 62
16
30
18
2
6
32
4
12
10
20
14
22
8
28
26
24
156
34 27 23
36 34 25
38 20 19
40 38 29
42 40 36
44 20 18
46 45 36
48 46 29
50 49 30
52 48 31
54 53 51
56 55 42
58 54 43
60 59 57
62 60 14
64 61 15
66 36 21
68 67 28
70 66 29
72 71 69
74 72 13
76 23 21
78 76 25
80 79 26
82 78 27
84 83 81
86 84 11
88 77 24
90 89 79
92 90 9
94 22 20
96 95 77
98 97 6
100 91 8
102 96 7
104 21 18
106 105 5
108 107 39
110 108 103
112 111 101
114 112 99
116 115 93
118 116 87
120 73 12
122 85 10
124 123 121
126 124 119
128 127 75
130 128 65
132 131 63
134 33 17
136 32 16
138 137 135
140 139 52
142 138 53
144 143 141
146 144 56
148 145 57
150 149 147
152 151 133
154 150 132
156 155 153
i0 1 x[7]
i1 2 z[6]
i2 2 z[0]
i3 1 x[0]
i4 1 x[2]
i5 2 z[7]
i6 1 x[1]
i7 1 x[5]
i8 1 x[4]
i9 2 z[1]
i10 1 x[6]
i11 2 z[2]
i12 1 x[3]
i13 2 z[5]
i14 2 z[4]
i15 2 z[3]
o0 bv[0]
c
simplified
  <
    or
      1 x
      1
    subtract
      add
        1
        1
      2 z
