words_train/words_933_SAT.qaiger.qdimacs
p cnf 78 187
a 1 2 3 4 5 6 7 8 0
e 9 10 11 12 13 14 15 16 17 18 19 20 21 22 23 24 25 26 27 28 29 30 31 32 33 34 35 36 37 38 39 40 41 42 43 44 45 46 47 48 49 50 51 52 53 54 55 56 57 58 59 60 61 62 63 64 65 66 67 68 69 70 71 72 73 74 75 76 77 78 0
13 11 17 0
-13 -17 0
-11 -17 0
-17 12 18 0
17 -18 0
-12 -18 0
-10 9 19 0
10 -19 0
-9 -19 0
-19 14 20 0
19 -20 0
-14 -20 0
-20 -18 21 0
20 -21 0
18 -21 0
-10 -9 22 0
10 -22 0
9 -22 0
22 -18 23 0
-22 -23 0
18 -23 0
-23 14 24 0
23 -24 0
-14 -24 0
24 -15 25 0
-24 -25 0
15 -25 0
-24 15 26 0
24 -26 0
-15 -26 0
26 25 27 0
-26 -27 0
-25 -27 0
27 -21 28 0
-27 -28 0
21 -28 0
-27 21 29 0
27 -29 0
-21 -29 0
29 28 30 0
-29 -30 0
-28 -30 0
-30 -7 31 0
30 -31 0
7 -31 0
30 7 32 0
-30 -32 0
-7 -32 0
-18 10 33 0
18 -33 0
-10 -33 0
33 -14 34 0
-33 -34 0
14 -34 0
-33 14 35 0
33 -35 0
-14 -35 0
35 34 36 0
-35 -36 0
-34 -36 0
-36 6 37 0
36 -37 0
-6 -37 0
11 10 38 0
-11 -38 0
-10 -38 0
-38 12 39 0
38 -39 0
-12 -39 0
39 -13 40 0
-39 -40 0
13 -40 0
-39 13 41 0
39 -41 0
-13 -41 0
41 40 42 0
-41 -42 0
-40 -42 0
-42 5 43 0
42 -43 0
-5 -43 0
38 -12 44 0
-38 -44 0
12 -44 0
44 39 45 0
-44 -45 0
-39 -45 0
-45 4 46 0
45 -46 0
-4 -46 0
-11 -10 47 0
11 -47 0
10 -47 0
47 38 48 0
-47 -48 0
-38 -48 0
48 -3 49 0
-48 -49 0
3 -49 0
45 -4 50 0
-45 -50 0
4 -50 0
-48 3 51 0
48 -51 0
-3 -51 0
10 -9 52 0
-10 -52 0
9 -52 0
52 2 53 0
-52 -53 0
-2 -53 0
53 19 54 0
-53 -54 0
-19 -54 0
-54 51 55 0
54 -55 0
-51 -55 0
55 50 56 0
-55 -56 0
-50 -56 0
-56 49 57 0
56 -57 0
-49 -57 0
57 46 58 0
-57 -58 0
-46 -58 0
-58 43 59 0
58 -59 0
-43 -59 0
36 -6 60 0
-36 -60 0
6 -60 0
42 -5 61 0
-42 -61 0
5 -61 0
61 60 62 0
-61 -62 0
-60 -62 0
-62 59 63 0
62 -63 0
-59 -63 0
63 37 64 0
-63 -64 0
-37 -64 0
-64 32 65 0
64 -65 0
-32 -65 0
65 31 66 0
-65 -66 0
-31 -66 0
16 8 67 0
-16 -67 0
-8 -67 0
-16 -8 68 0
16 -68 0
8 -68 0
68 67 69 0
-68 -69 0
-67 -69 0
69 -26 70 0
-69 -70 0
26 -70 0
-69 26 71 0
69 -71 0
-26 -71 0
71 70 72 0
-71 -72 0
-70 -72 0
-72 -28 73 0
72 -73 0
28 -73 0
72 28 74 0
-72 -74 0
-28 -74 0
74 73 75 0
-74 -75 0
-73 -75 0
75 66 76 0
-75 -76 0
-66 -76 0
-75 -66 77 0
75 -77 0
66 -77 0
77 76 78 0
-77 -78 0
-76 -78 0
78 0
